c "707611.clq"
p edge 201 2960
e 1 17
e 1 18
e 1 19
e 1 20
e 1 22
e 1 24
e 1 25
e 1 26
e 1 27
e 1 30
e 1 34
e 1 36
e 1 37
e 1 38
e 1 39
e 1 41
e 1 42
e 1 48
e 1 50
e 1 65
e 1 67
e 1 71
e 1 75
e 1 77
e 1 79
e 1 89
e 1 111
e 1 118
e 1 146
e 1 153
e 1 157
e 1 158
e 1 176
e 1 185
e 1 190
e 2 17
e 2 18
e 2 19
e 2 20
e 2 21
e 2 23
e 2 25
e 2 26
e 2 27
e 2 34
e 2 35
e 2 37
e 2 39
e 2 40
e 2 42
e 2 45
e 2 48
e 2 50
e 2 56
e 2 57
e 2 58
e 2 62
e 2 64
e 2 65
e 2 76
e 2 93
e 2 94
e 2 96
e 2 97
e 2 100
e 2 105
e 2 109
e 2 119
e 2 126
e 2 127
e 2 132
e 2 143
e 2 155
e 2 161
e 2 167
e 2 172
e 2 181
e 2 184
e 2 194
e 2 199
e 3 17
e 3 18
e 3 20
e 3 21
e 3 22
e 3 24
e 3 25
e 3 26
e 3 28
e 3 30
e 3 31
e 3 33
e 3 34
e 3 41
e 3 43
e 3 44
e 3 50
e 3 57
e 3 68
e 3 70
e 3 72
e 3 76
e 3 81
e 3 83
e 3 87
e 3 88
e 3 90
e 3 110
e 3 126
e 3 136
e 3 147
e 3 154
e 3 156
e 3 158
e 3 159
e 3 167
e 3 198
e 4 17
e 4 18
e 4 19
e 4 20
e 4 21
e 4 22
e 4 25
e 4 28
e 4 30
e 4 32
e 4 34
e 4 35
e 4 36
e 4 44
e 4 48
e 4 50
e 4 59
e 4 61
e 4 63
e 4 86
e 4 87
e 4 88
e 4 90
e 4 99
e 4 104
e 4 110
e 4 112
e 4 121
e 4 126
e 4 134
e 4 140
e 4 142
e 4 148
e 4 172
e 4 184
e 4 185
e 5 17
e 5 18
e 5 19
e 5 20
e 5 21
e 5 22
e 5 23
e 5 24
e 5 27
e 5 28
e 5 29
e 5 31
e 5 32
e 5 34
e 5 40
e 5 41
e 5 44
e 5 47
e 5 50
e 5 52
e 5 57
e 5 59
e 5 60
e 5 62
e 5 63
e 5 65
e 5 69
e 5 75
e 5 78
e 5 83
e 5 84
e 5 86
e 5 87
e 5 89
e 5 90
e 5 97
e 5 99
e 5 100
e 5 111
e 5 118
e 5 119
e 5 121
e 5 126
e 5 129
e 5 130
e 5 134
e 5 150
e 5 151
e 5 158
e 5 160
e 5 164
e 5 170
e 5 171
e 5 174
e 5 180
e 5 183
e 5 187
e 5 189
e 5 195
e 5 198
e 6 17
e 6 18
e 6 19
e 6 20
e 6 21
e 6 22
e 6 23
e 6 24
e 6 27
e 6 30
e 6 32
e 6 38
e 6 46
e 6 47
e 6 53
e 6 66
e 6 77
e 6 82
e 6 85
e 6 95
e 6 110
e 6 130
e 6 134
e 6 139
e 6 150
e 6 158
e 6 160
e 6 180
e 6 182
e 6 193
e 7 17
e 7 18
e 7 19
e 7 20
e 7 22
e 7 23
e 7 25
e 7 26
e 7 27
e 7 28
e 7 29
e 7 30
e 7 32
e 7 33
e 7 35
e 7 41
e 7 42
e 7 44
e 7 45
e 7 46
e 7 47
e 7 51
e 7 58
e 7 60
e 7 66
e 7 67
e 7 68
e 7 70
e 7 71
e 7 72
e 7 73
e 7 79
e 7 84
e 7 86
e 7 89
e 7 102
e 7 103
e 7 105
e 7 107
e 7 122
e 7 124
e 7 128
e 7 134
e 7 145
e 7 146
e 7 153
e 7 156
e 7 159
e 7 162
e 7 192
e 8 17
e 8 18
e 8 19
e 8 21
e 8 22
e 8 24
e 8 26
e 8 31
e 8 36
e 8 37
e 8 42
e 8 55
e 8 59
e 8 65
e 8 69
e 8 72
e 8 76
e 8 77
e 8 82
e 8 90
e 8 95
e 8 98
e 8 100
e 8 101
e 8 113
e 8 120
e 8 139
e 8 154
e 8 160
e 8 161
e 8 162
e 8 165
e 8 178
e 8 179
e 8 189
e 8 192
e 8 198
e 9 17
e 9 18
e 9 20
e 9 21
e 9 23
e 9 24
e 9 25
e 9 35
e 9 36
e 9 41
e 9 52
e 9 56
e 9 57
e 9 58
e 9 64
e 9 66
e 9 68
e 9 74
e 9 79
e 9 81
e 9 91
e 9 92
e 9 93
e 9 95
e 9 103
e 9 124
e 9 130
e 9 136
e 9 137
e 9 144
e 9 147
e 9 169
e 9 171
e 9 180
e 9 200
e 10 17
e 10 18
e 10 19
e 10 20
e 10 21
e 10 23
e 10 25
e 10 27
e 10 29
e 10 31
e 10 35
e 10 38
e 10 39
e 10 40
e 10 43
e 10 45
e 10 46
e 10 49
e 10 50
e 10 52
e 10 56
e 10 57
e 10 60
e 10 65
e 10 80
e 10 81
e 10 84
e 10 85
e 10 88
e 10 89
e 10 100
e 10 102
e 10 106
e 10 111
e 10 117
e 10 124
e 10 127
e 10 128
e 10 131
e 10 136
e 10 142
e 10 145
e 10 158
e 10 171
e 10 173
e 10 174
e 10 180
e 10 182
e 10 183
e 10 187
e 10 190
e 10 201
e 11 17
e 11 18
e 11 19
e 11 20
e 11 21
e 11 22
e 11 23
e 11 24
e 11 26
e 11 29
e 11 31
e 11 32
e 11 33
e 11 35
e 11 36
e 11 40
e 11 43
e 11 46
e 11 47
e 11 48
e 11 50
e 11 53
e 11 56
e 11 57
e 11 60
e 11 66
e 11 70
e 11 73
e 11 75
e 11 77
e 11 81
e 11 87
e 11 91
e 11 92
e 11 94
e 11 101
e 11 104
e 11 109
e 11 119
e 11 121
e 11 136
e 11 141
e 11 147
e 11 152
e 11 156
e 11 162
e 11 165
e 11 168
e 11 178
e 11 197
e 11 199
e 11 200
e 12 17
e 12 18
e 12 19
e 12 20
e 12 21
e 12 23
e 12 24
e 12 31
e 12 33
e 12 38
e 12 39
e 12 43
e 12 46
e 12 48
e 12 52
e 12 60
e 12 64
e 12 66
e 12 68
e 12 69
e 12 77
e 12 94
e 12 95
e 12 115
e 12 124
e 12 139
e 12 157
e 12 189
e 12 199
e 13 17
e 13 18
e 13 19
e 13 20
e 13 22
e 13 23
e 13 25
e 13 27
e 13 28
e 13 29
e 13 33
e 13 34
e 13 35
e 13 37
e 13 38
e 13 40
e 13 41
e 13 44
e 13 48
e 13 49
e 13 51
e 13 52
e 13 55
e 13 61
e 13 63
e 13 65
e 13 66
e 13 67
e 13 69
e 13 70
e 13 74
e 13 76
e 13 80
e 13 81
e 13 82
e 13 85
e 13 91
e 13 92
e 13 99
e 13 100
e 13 105
e 13 109
e 13 110
e 13 115
e 13 119
e 13 132
e 13 148
e 13 156
e 13 159
e 13 164
e 13 166
e 13 170
e 13 173
e 13 180
e 13 181
e 13 190
e 13 193
e 13 194
e 13 199
e 14 17
e 14 19
e 14 21
e 14 22
e 14 26
e 14 27
e 14 28
e 14 30
e 14 31
e 14 35
e 14 37
e 14 38
e 14 42
e 14 48
e 14 52
e 14 54
e 14 55
e 14 57
e 14 61
e 14 68
e 14 73
e 14 74
e 14 83
e 14 84
e 14 89
e 14 90
e 14 91
e 14 105
e 14 115
e 14 116
e 14 122
e 14 123
e 14 147
e 14 149
e 14 165
e 14 169
e 14 174
e 14 182
e 14 187
e 14 196
e 15 17
e 15 18
e 15 19
e 15 26
e 15 28
e 15 29
e 15 37
e 15 38
e 15 46
e 15 48
e 15 49
e 15 52
e 15 53
e 15 65
e 15 82
e 15 86
e 15 111
e 15 112
e 15 115
e 15 122
e 15 126
e 15 133
e 15 134
e 15 143
e 15 171
e 15 185
e 15 197
e 16 17
e 16 18
e 16 19
e 16 20
e 16 21
e 16 22
e 16 23
e 16 24
e 16 27
e 16 28
e 16 32
e 16 33
e 16 37
e 16 38
e 16 39
e 16 41
e 16 53
e 16 54
e 16 59
e 16 61
e 16 64
e 16 74
e 16 75
e 16 80
e 16 85
e 16 91
e 16 93
e 16 99
e 16 104
e 16 108
e 16 126
e 16 131
e 16 145
e 16 149
e 16 152
e 16 166
e 16 167
e 16 168
e 16 175
e 16 186
e 16 189
e 16 193
e 17 18
e 17 19
e 17 20
e 17 21
e 17 22
e 17 23
e 17 24
e 17 25
e 17 26
e 17 27
e 17 28
e 17 29
e 17 30
e 17 31
e 17 32
e 17 34
e 17 35
e 17 40
e 17 41
e 17 42
e 17 44
e 17 47
e 17 49
e 17 53
e 17 55
e 17 59
e 17 60
e 17 62
e 17 69
e 17 70
e 17 73
e 17 75
e 17 83
e 17 85
e 17 92
e 17 93
e 17 95
e 17 96
e 17 98
e 17 100
e 17 103
e 17 106
e 17 108
e 17 111
e 17 112
e 17 116
e 17 121
e 17 129
e 17 131
e 17 134
e 17 135
e 17 136
e 17 139
e 17 144
e 17 148
e 17 157
e 17 162
e 17 164
e 17 166
e 17 169
e 17 175
e 17 179
e 17 183
e 17 185
e 17 189
e 18 19
e 18 20
e 18 21
e 18 22
e 18 23
e 18 24
e 18 25
e 18 26
e 18 27
e 18 28
e 18 29
e 18 30
e 18 31
e 18 32
e 18 33
e 18 34
e 18 35
e 18 36
e 18 37
e 18 40
e 18 42
e 18 43
e 18 44
e 18 48
e 18 53
e 18 55
e 18 56
e 18 60
e 18 61
e 18 66
e 18 69
e 18 70
e 18 72
e 18 73
e 18 75
e 18 82
e 18 84
e 18 96
e 18 98
e 18 101
e 18 107
e 18 109
e 18 111
e 18 118
e 18 130
e 18 133
e 18 135
e 18 137
e 18 139
e 18 142
e 18 143
e 18 147
e 18 154
e 18 160
e 18 165
e 18 168
e 18 173
e 18 175
e 18 176
e 18 179
e 18 190
e 18 192
e 18 197
e 18 198
e 19 20
e 19 21
e 19 22
e 19 23
e 19 24
e 19 25
e 19 26
e 19 27
e 19 28
e 19 29
e 19 30
e 19 31
e 19 34
e 19 36
e 19 38
e 19 40
e 19 41
e 19 43
e 19 45
e 19 46
e 19 47
e 19 51
e 19 52
e 19 54
e 19 58
e 19 60
e 19 66
e 19 69
e 19 72
e 19 74
e 19 75
e 19 77
e 19 78
e 19 80
e 19 83
e 19 84
e 19 90
e 19 98
e 19 99
e 19 107
e 19 114
e 19 115
e 19 118
e 19 120
e 19 126
e 19 127
e 19 130
e 19 132
e 19 139
e 19 140
e 19 141
e 19 143
e 19 144
e 19 147
e 19 148
e 19 149
e 19 152
e 19 158
e 19 159
e 19 168
e 19 169
e 19 174
e 19 175
e 19 194
e 19 201
e 20 21
e 20 22
e 20 23
e 20 24
e 20 25
e 20 26
e 20 28
e 20 29
e 20 30
e 20 31
e 20 32
e 20 33
e 20 35
e 20 36
e 20 38
e 20 39
e 20 40
e 20 41
e 20 42
e 20 43
e 20 45
e 20 46
e 20 50
e 20 52
e 20 58
e 20 60
e 20 63
e 20 65
e 20 67
e 20 71
e 20 76
e 20 81
e 20 82
e 20 86
e 20 88
e 20 89
e 20 91
e 20 94
e 20 95
e 20 97
e 20 101
e 20 103
e 20 110
e 20 111
e 20 114
e 20 119
e 20 128
e 20 134
e 20 140
e 20 149
e 20 153
e 20 164
e 20 170
e 20 180
e 20 181
e 20 182
e 20 184
e 20 186
e 20 187
e 20 190
e 20 191
e 20 196
e 20 201
e 21 22
e 21 23
e 21 24
e 21 25
e 21 26
e 21 28
e 21 29
e 21 30
e 21 32
e 21 33
e 21 34
e 21 36
e 21 37
e 21 41
e 21 43
e 21 47
e 21 48
e 21 49
e 21 50
e 21 51
e 21 56
e 21 57
e 21 58
e 21 61
e 21 62
e 21 71
e 21 76
e 21 85
e 21 87
e 21 93
e 21 96
e 21 100
e 21 102
e 21 106
e 21 108
e 21 110
e 21 114
e 21 124
e 21 130
e 21 140
e 21 141
e 21 149
e 21 151
e 21 152
e 21 153
e 21 155
e 21 165
e 21 174
e 21 176
e 21 179
e 21 180
e 21 185
e 21 189
e 21 192
e 21 194
e 21 199
e 22 23
e 22 24
e 22 25
e 22 26
e 22 27
e 22 28
e 22 29
e 22 30
e 22 31
e 22 32
e 22 33
e 22 35
e 22 36
e 22 37
e 22 38
e 22 41
e 22 42
e 22 44
e 22 45
e 22 46
e 22 51
e 22 58
e 22 62
e 22 64
e 22 67
e 22 68
e 22 72
e 22 73
e 22 74
e 22 78
e 22 83
e 22 84
e 22 86
e 22 87
e 22 89
e 22 90
e 22 91
e 22 103
e 22 108
e 22 110
e 22 117
e 22 123
e 22 125
e 22 128
e 22 136
e 22 138
e 22 146
e 22 148
e 22 151
e 22 152
e 22 153
e 22 154
e 22 156
e 22 171
e 22 173
e 22 174
e 22 176
e 22 183
e 22 186
e 22 188
e 22 192
e 22 195
e 22 199
e 23 24
e 23 25
e 23 26
e 23 27
e 23 29
e 23 30
e 23 31
e 23 33
e 23 34
e 23 36
e 23 43
e 23 44
e 23 47
e 23 48
e 23 49
e 23 51
e 23 54
e 23 56
e 23 57
e 23 62
e 23 63
e 23 64
e 23 72
e 23 74
e 23 76
e 23 78
e 23 81
e 23 96
e 23 99
e 23 103
e 23 104
e 23 107
e 23 108
e 23 110
e 23 112
e 23 113
e 23 128
e 23 133
e 23 134
e 23 142
e 23 143
e 23 146
e 23 155
e 23 156
e 23 159
e 23 160
e 23 161
e 23 163
e 23 175
e 23 181
e 23 188
e 23 190
e 23 198
e 23 201
e 24 25
e 24 26
e 24 27
e 24 28
e 24 30
e 24 31
e 24 32
e 24 33
e 24 34
e 24 35
e 24 38
e 24 39
e 24 40
e 24 41
e 24 42
e 24 43
e 24 47
e 24 49
e 24 51
e 24 52
e 24 53
e 24 54
e 24 57
e 24 62
e 24 65
e 24 66
e 24 69
e 24 71
e 24 72
e 24 73
e 24 74
e 24 77
e 24 79
e 24 83
e 24 86
e 24 89
e 24 93
e 24 96
e 24 97
e 24 99
e 24 104
e 24 106
e 24 113
e 24 115
e 24 121
e 24 131
e 24 134
e 24 138
e 24 139
e 24 142
e 24 145
e 24 153
e 24 154
e 24 156
e 24 157
e 24 158
e 24 166
e 24 168
e 24 172
e 24 177
e 24 178
e 24 179
e 24 182
e 24 183
e 24 191
e 24 192
e 24 200
e 25 28
e 25 30
e 25 33
e 25 35
e 25 38
e 25 39
e 25 40
e 25 47
e 25 48
e 25 49
e 25 56
e 25 59
e 25 63
e 25 75
e 25 80
e 25 87
e 25 98
e 25 99
e 25 106
e 25 107
e 25 119
e 25 125
e 25 126
e 25 130
e 25 146
e 25 148
e 25 151
e 25 158
e 25 184
e 25 194
e 25 200
e 26 27
e 26 29
e 26 32
e 26 34
e 26 37
e 26 39
e 26 49
e 26 50
e 26 51
e 26 61
e 26 67
e 26 75
e 26 76
e 26 91
e 26 96
e 26 98
e 26 102
e 26 111
e 26 118
e 26 122
e 26 124
e 26 131
e 26 137
e 26 141
e 26 150
e 26 155
e 26 157
e 26 159
e 26 161
e 26 165
e 26 170
e 26 184
e 26 194
e 26 198
e 27 29
e 27 32
e 27 33
e 27 39
e 27 43
e 27 45
e 27 50
e 27 51
e 27 52
e 27 54
e 27 56
e 27 57
e 27 59
e 27 60
e 27 64
e 27 68
e 27 74
e 27 77
e 27 80
e 27 84
e 27 86
e 27 87
e 27 89
e 27 93
e 27 94
e 27 99
e 27 101
e 27 107
e 27 120
e 27 133
e 27 137
e 27 140
e 27 144
e 27 154
e 27 157
e 27 159
e 27 160
e 27 165
e 27 176
e 27 178
e 27 179
e 27 181
e 27 183
e 27 197
e 28 29
e 28 31
e 28 32
e 28 34
e 28 36
e 28 37
e 28 38
e 28 43
e 28 45
e 28 50
e 28 51
e 28 53
e 28 55
e 28 56
e 28 57
e 28 63
e 28 68
e 28 69
e 28 72
e 28 73
e 28 77
e 28 98
e 28 102
e 28 103
e 28 111
e 28 116
e 28 117
e 28 120
e 28 129
e 28 131
e 28 135
e 28 138
e 28 140
e 28 152
e 28 153
e 28 173
e 28 175
e 28 176
e 29 30
e 29 31
e 29 37
e 29 39
e 29 41
e 29 55
e 29 59
e 29 62
e 29 67
e 29 71
e 29 72
e 29 74
e 29 76
e 29 79
e 29 80
e 29 86
e 29 91
e 29 93
e 29 98
e 29 110
e 29 120
e 29 123
e 29 129
e 29 131
e 29 135
e 29 143
e 29 151
e 29 159
e 29 196
e 30 33
e 30 34
e 30 36
e 30 37
e 30 39
e 30 40
e 30 46
e 30 47
e 30 52
e 30 53
e 30 54
e 30 56
e 30 58
e 30 59
e 30 65
e 30 67
e 30 71
e 30 73
e 30 74
e 30 81
e 30 83
e 30 87
e 30 94
e 30 102
e 30 103
e 30 104
e 30 105
e 30 118
e 30 119
e 30 122
e 30 123
e 30 144
e 30 155
e 30 163
e 30 167
e 30 171
e 30 172
e 30 178
e 30 179
e 30 182
e 31 32
e 31 33
e 31 34
e 31 35
e 31 36
e 31 37
e 31 39
e 31 40
e 31 42
e 31 44
e 31 46
e 31 53
e 31 54
e 31 57
e 31 59
e 31 60
e 31 62
e 31 63
e 31 66
e 31 68
e 31 70
e 31 73
e 31 79
e 31 82
e 31 87
e 31 88
e 31 106
e 31 109
e 31 111
e 31 113
e 31 120
e 31 125
e 31 129
e 31 141
e 31 152
e 31 153
e 31 155
e 31 161
e 31 164
e 31 168
e 31 177
e 31 195
e 31 199
e 31 201
e 32 37
e 32 43
e 32 44
e 32 45
e 32 48
e 32 49
e 32 51
e 32 61
e 32 63
e 32 64
e 32 68
e 32 70
e 32 75
e 32 90
e 32 93
e 32 95
e 32 97
e 32 103
e 32 104
e 32 107
e 32 108
e 32 109
e 32 119
e 32 124
e 32 127
e 32 128
e 32 132
e 32 153
e 32 160
e 32 182
e 32 186
e 32 187
e 32 190
e 32 195
e 32 200
e 33 36
e 33 39
e 33 40
e 33 41
e 33 42
e 33 45
e 33 46
e 33 48
e 33 49
e 33 50
e 33 58
e 33 74
e 33 85
e 33 86
e 33 90
e 33 103
e 33 105
e 33 118
e 33 126
e 33 141
e 33 142
e 33 144
e 33 150
e 33 175
e 33 177
e 33 189
e 33 191
e 34 35
e 34 36
e 34 38
e 34 41
e 34 42
e 34 45
e 34 54
e 34 56
e 34 58
e 34 59
e 34 61
e 34 63
e 34 64
e 34 66
e 34 68
e 34 70
e 34 71
e 34 80
e 34 81
e 34 84
e 34 89
e 34 92
e 34 97
e 34 99
e 34 102
e 34 124
e 34 127
e 34 131
e 34 139
e 34 141
e 34 143
e 34 147
e 34 155
e 34 160
e 34 174
e 34 175
e 34 189
e 34 194
e 35 39
e 35 44
e 35 47
e 35 49
e 35 51
e 35 54
e 35 60
e 35 61
e 35 75
e 35 80
e 35 94
e 35 100
e 35 101
e 35 108
e 35 117
e 35 124
e 35 131
e 35 142
e 35 150
e 35 160
e 35 165
e 35 169
e 35 177
e 35 188
e 35 193
e 35 197
e 35 199
e 35 200
e 36 43
e 36 45
e 36 54
e 36 58
e 36 67
e 36 68
e 36 69
e 36 73
e 36 81
e 36 84
e 36 94
e 36 105
e 36 109
e 36 118
e 36 123
e 36 130
e 36 133
e 36 135
e 36 174
e 36 175
e 36 194
e 36 198
e 37 38
e 37 40
e 37 42
e 37 43
e 37 44
e 37 46
e 37 48
e 37 49
e 37 50
e 37 51
e 37 56
e 37 57
e 37 58
e 37 61
e 37 62
e 37 64
e 37 69
e 37 70
e 37 72
e 37 75
e 37 82
e 37 84
e 37 88
e 37 92
e 37 104
e 37 117
e 37 118
e 37 137
e 37 150
e 37 155
e 37 158
e 37 166
e 37 168
e 37 176
e 37 177
e 37 181
e 37 196
e 37 199
e 38 39
e 38 40
e 38 42
e 38 45
e 38 51
e 38 55
e 38 56
e 38 60
e 38 63
e 38 65
e 38 66
e 38 68
e 38 78
e 38 79
e 38 80
e 38 83
e 38 86
e 38 89
e 38 91
e 38 94
e 38 96
e 38 97
e 38 105
e 38 122
e 38 123
e 38 127
e 38 136
e 38 142
e 38 148
e 38 149
e 38 151
e 38 152
e 38 161
e 38 166
e 38 170
e 38 180
e 38 183
e 39 43
e 39 44
e 39 48
e 39 49
e 39 50
e 39 52
e 39 53
e 39 55
e 39 64
e 39 68
e 39 70
e 39 72
e 39 78
e 39 87
e 39 90
e 39 94
e 39 98
e 39 99
e 39 107
e 39 108
e 39 110
e 39 114
e 39 122
e 39 123
e 39 125
e 39 126
e 39 130
e 39 135
e 39 149
e 39 152
e 39 154
e 39 156
e 39 159
e 39 163
e 39 164
e 39 165
e 39 167
e 39 174
e 39 177
e 39 182
e 39 192
e 39 193
e 40 46
e 40 49
e 40 50
e 40 52
e 40 53
e 40 54
e 40 57
e 40 59
e 40 64
e 40 67
e 40 78
e 40 79
e 40 92
e 40 97
e 40 102
e 40 107
e 40 113
e 40 120
e 40 133
e 40 137
e 40 159
e 40 169
e 41 42
e 41 45
e 41 47
e 41 49
e 41 53
e 41 55
e 41 56
e 41 59
e 41 61
e 41 64
e 41 68
e 41 73
e 41 74
e 41 75
e 41 77
e 41 80
e 41 83
e 41 88
e 41 97
e 41 99
e 41 103
e 41 106
e 41 109
e 41 110
e 41 113
e 41 120
e 41 124
e 41 135
e 41 137
e 41 140
e 41 148
e 41 153
e 41 180
e 41 192
e 41 193
e 41 199
e 41 201
e 42 44
e 42 45
e 42 51
e 42 53
e 42 55
e 42 65
e 42 71
e 42 75
e 42 84
e 42 87
e 42 89
e 42 91
e 42 93
e 42 102
e 42 108
e 42 112
e 42 135
e 42 144
e 42 148
e 42 149
e 42 158
e 42 161
e 42 164
e 42 167
e 42 168
e 42 172
e 42 173
e 42 176
e 42 178
e 42 179
e 42 180
e 42 183
e 42 186
e 43 44
e 43 45
e 43 46
e 43 47
e 43 55
e 43 67
e 43 70
e 43 76
e 43 77
e 43 90
e 43 100
e 43 115
e 43 133
e 43 142
e 43 151
e 43 152
e 43 154
e 43 166
e 43 174
e 43 181
e 43 189
e 43 196
e 44 46
e 44 47
e 44 53
e 44 58
e 44 59
e 44 62
e 44 63
e 44 66
e 44 70
e 44 73
e 44 86
e 44 92
e 44 94
e 44 95
e 44 101
e 44 102
e 44 103
e 44 116
e 44 121
e 44 123
e 44 167
e 45 47
e 45 51
e 45 52
e 45 58
e 45 63
e 45 67
e 45 72
e 45 85
e 45 103
e 45 109
e 45 119
e 45 122
e 45 126
e 45 133
e 45 137
e 45 154
e 45 162
e 45 171
e 45 186
e 45 190
e 46 54
e 46 59
e 46 60
e 46 78
e 46 82
e 46 102
e 46 104
e 46 106
e 46 113
e 46 117
e 46 118
e 46 122
e 46 129
e 46 136
e 46 145
e 46 146
e 46 156
e 46 165
e 46 169
e 46 172
e 46 179
e 46 189
e 46 193
e 46 201
e 47 52
e 47 54
e 47 57
e 47 62
e 47 64
e 47 65
e 47 78
e 47 81
e 47 84
e 47 95
e 47 99
e 47 114
e 47 133
e 47 136
e 47 137
e 47 138
e 47 161
e 47 171
e 47 174
e 47 196
e 48 64
e 48 66
e 48 76
e 48 80
e 48 87
e 48 94
e 48 99
e 48 101
e 48 105
e 48 109
e 48 110
e 48 112
e 48 114
e 48 115
e 48 119
e 48 122
e 48 129
e 48 145
e 48 146
e 48 158
e 48 168
e 48 171
e 48 172
e 48 183
e 48 184
e 48 187
e 48 195
e 48 198
e 49 55
e 49 60
e 49 61
e 49 63
e 49 71
e 49 72
e 49 78
e 49 87
e 49 95
e 49 96
e 49 101
e 49 102
e 49 107
e 49 113
e 49 114
e 49 126
e 49 144
e 49 167
e 49 179
e 49 195
e 49 198
e 49 201
e 50 54
e 50 55
e 50 61
e 50 63
e 50 64
e 50 69
e 50 71
e 50 74
e 50 75
e 50 84
e 50 89
e 50 90
e 50 99
e 50 100
e 50 105
e 50 113
e 50 116
e 50 119
e 50 120
e 50 130
e 50 143
e 50 145
e 50 152
e 50 163
e 50 192
e 50 199
e 51 53
e 51 58
e 51 62
e 51 63
e 51 70
e 51 72
e 51 78
e 51 85
e 51 86
e 51 91
e 51 94
e 51 105
e 51 107
e 51 116
e 51 117
e 51 118
e 51 134
e 51 143
e 51 150
e 51 151
e 51 155
e 51 156
e 51 166
e 51 191
e 51 192
e 51 195
e 51 200
e 52 55
e 52 82
e 52 85
e 52 94
e 52 95
e 52 100
e 52 104
e 52 112
e 52 119
e 52 125
e 52 128
e 52 137
e 52 144
e 52 145
e 52 159
e 52 169
e 52 173
e 52 185
e 53 54
e 53 55
e 53 58
e 53 62
e 53 65
e 53 67
e 53 74
e 53 78
e 53 81
e 53 86
e 53 92
e 53 93
e 53 94
e 53 97
e 53 111
e 53 112
e 53 116
e 53 117
e 53 125
e 53 127
e 53 142
e 53 147
e 53 150
e 53 170
e 53 177
e 53 182
e 53 189
e 53 190
e 53 198
e 54 59
e 54 70
e 54 71
e 54 92
e 54 117
e 54 121
e 54 127
e 54 132
e 54 149
e 54 166
e 54 174
e 54 183
e 54 195
e 55 56
e 55 67
e 55 76
e 55 100
e 55 106
e 55 107
e 55 113
e 55 120
e 55 122
e 55 127
e 55 129
e 55 131
e 55 132
e 55 144
e 55 151
e 55 191
e 55 195
e 55 197
e 56 62
e 56 75
e 56 104
e 56 117
e 56 119
e 56 124
e 56 128
e 56 138
e 56 140
e 56 168
e 56 186
e 56 195
e 56 198
e 57 60
e 57 69
e 57 70
e 57 73
e 57 77
e 57 78
e 57 85
e 57 96
e 57 120
e 57 133
e 57 152
e 57 182
e 57 184
e 57 199
e 58 69
e 58 73
e 58 79
e 58 83
e 58 86
e 58 90
e 58 92
e 58 114
e 58 139
e 58 162
e 59 61
e 59 65
e 59 66
e 59 74
e 59 76
e 59 79
e 59 80
e 59 81
e 59 92
e 59 101
e 59 102
e 59 116
e 59 154
e 59 160
e 59 184
e 60 61
e 60 62
e 60 67
e 60 71
e 60 79
e 60 88
e 60 95
e 60 106
e 60 112
e 60 132
e 60 133
e 60 141
e 60 148
e 60 149
e 60 153
e 60 155
e 60 162
e 60 163
e 60 166
e 60 177
e 60 178
e 60 189
e 60 200
e 61 79
e 61 81
e 61 88
e 61 91
e 61 109
e 61 112
e 61 118
e 61 125
e 61 130
e 61 135
e 61 154
e 61 164
e 61 172
e 61 190
e 62 66
e 62 71
e 62 80
e 62 81
e 62 89
e 62 98
e 62 100
e 62 109
e 62 110
e 62 115
e 62 121
e 62 123
e 62 130
e 62 140
e 62 141
e 62 143
e 62 146
e 62 149
e 62 159
e 62 161
e 62 181
e 62 196
e 62 197
e 63 68
e 63 69
e 63 76
e 63 82
e 63 88
e 63 109
e 63 123
e 63 125
e 63 131
e 63 132
e 63 162
e 63 173
e 63 190
e 63 200
e 64 65
e 64 67
e 64 79
e 64 98
e 64 106
e 64 110
e 64 113
e 64 116
e 64 121
e 64 124
e 64 129
e 64 132
e 64 138
e 64 148
e 64 160
e 64 163
e 64 171
e 64 185
e 64 197
e 64 201
e 65 78
e 65 79
e 65 81
e 65 96
e 65 101
e 65 113
e 65 134
e 65 135
e 65 189
e 65 191
e 65 197
e 66 77
e 66 78
e 66 79
e 66 82
e 66 83
e 66 93
e 66 96
e 66 98
e 66 103
e 66 104
e 66 106
e 66 114
e 66 120
e 66 121
e 66 125
e 66 136
e 66 156
e 66 163
e 66 167
e 66 168
e 66 181
e 66 182
e 67 71
e 67 77
e 67 93
e 67 105
e 67 114
e 67 138
e 67 139
e 67 157
e 67 176
e 67 190
e 68 69
e 68 77
e 68 88
e 68 104
e 68 106
e 68 116
e 68 117
e 68 152
e 68 172
e 69 76
e 69 78
e 69 82
e 69 85
e 69 105
e 69 186
e 70 71
e 70 72
e 70 73
e 70 76
e 70 77
e 70 85
e 70 87
e 70 88
e 70 90
e 70 96
e 70 97
e 70 100
e 70 104
e 70 105
e 70 112
e 70 114
e 70 119
e 70 123
e 70 127
e 70 142
e 70 144
e 70 162
e 70 172
e 70 175
e 70 176
e 70 188
e 71 84
e 71 90
e 71 98
e 71 108
e 71 109
e 71 114
e 71 117
e 71 125
e 71 137
e 71 150
e 71 152
e 71 182
e 71 194
e 72 88
e 72 90
e 72 92
e 72 97
e 72 114
e 72 128
e 72 135
e 72 147
e 72 160
e 72 172
e 72 173
e 72 177
e 72 185
e 72 196
e 73 95
e 73 98
e 73 150
e 73 171
e 74 83
e 74 88
e 74 92
e 74 112
e 74 130
e 74 140
e 74 143
e 74 163
e 74 168
e 74 169
e 74 177
e 75 79
e 75 89
e 75 92
e 75 97
e 75 110
e 75 111
e 75 112
e 75 121
e 75 124
e 75 128
e 75 133
e 75 134
e 75 138
e 75 142
e 75 146
e 75 163
e 76 82
e 76 83
e 76 86
e 76 88
e 76 91
e 76 93
e 76 96
e 76 103
e 76 104
e 76 116
e 76 121
e 76 125
e 76 132
e 76 157
e 76 169
e 76 175
e 76 176
e 76 178
e 76 179
e 76 180
e 76 183
e 76 188
e 76 190
e 76 193
e 77 104
e 77 125
e 77 127
e 77 148
e 77 150
e 77 172
e 77 191
e 77 196
e 78 80
e 78 82
e 78 83
e 78 84
e 78 111
e 78 112
e 78 115
e 78 124
e 78 130
e 78 150
e 78 158
e 78 160
e 78 163
e 78 180
e 78 188
e 78 193
e 78 197
e 79 80
e 79 85
e 79 100
e 79 103
e 79 107
e 79 116
e 79 122
e 79 138
e 79 139
e 79 153
e 79 161
e 79 196
e 80 82
e 80 85
e 80 87
e 80 95
e 80 101
e 80 106
e 80 108
e 80 117
e 80 123
e 80 126
e 80 128
e 80 138
e 80 147
e 80 161
e 80 170
e 80 171
e 80 174
e 80 178
e 80 182
e 81 83
e 81 88
e 81 93
e 81 98
e 81 102
e 81 105
e 81 107
e 81 125
e 81 126
e 81 129
e 81 134
e 81 144
e 81 155
e 81 167
e 81 169
e 81 170
e 81 191
e 81 197
e 82 89
e 82 91
e 82 114
e 82 132
e 82 152
e 82 157
e 82 187
e 82 194
e 83 97
e 83 102
e 83 115
e 83 126
e 83 134
e 83 143
e 83 182
e 83 186
e 84 85
e 84 101
e 84 102
e 84 135
e 84 136
e 84 139
e 84 146
e 84 197
e 85 93
e 85 97
e 85 107
e 85 122
e 85 129
e 85 145
e 85 170
e 85 188
e 86 94
e 86 135
e 86 151
e 86 155
e 86 167
e 86 194
e 86 196
e 87 97
e 87 105
e 87 109
e 87 112
e 87 136
e 87 151
e 87 155
e 87 156
e 87 160
e 87 164
e 87 171
e 87 179
e 87 184
e 87 186
e 87 192
e 87 193
e 87 196
e 88 113
e 88 118
e 88 119
e 88 125
e 88 134
e 88 144
e 88 158
e 88 166
e 88 173
e 88 174
e 88 184
e 89 96
e 89 99
e 89 120
e 89 127
e 89 139
e 89 145
e 89 196
e 89 198
e 90 91
e 90 92
e 90 95
e 90 100
e 90 108
e 90 112
e 90 113
e 90 147
e 90 165
e 90 170
e 90 178
e 90 191
e 91 95
e 91 96
e 91 115
e 91 128
e 91 132
e 91 135
e 91 159
e 91 169
e 91 173
e 91 174
e 91 175
e 92 98
e 92 113
e 92 116
e 92 123
e 92 129
e 92 141
e 92 146
e 92 148
e 92 176
e 92 188
e 92 195
e 92 200
e 93 122
e 93 127
e 93 128
e 93 131
e 93 184
e 93 193
e 94 101
e 94 108
e 94 110
e 94 130
e 94 142
e 94 150
e 94 157
e 95 108
e 95 109
e 95 129
e 95 135
e 95 141
e 95 145
e 95 153
e 95 163
e 95 175
e 95 190
e 96 101
e 96 120
e 96 123
e 96 133
e 96 136
e 96 188
e 96 200
e 97 123
e 97 132
e 97 144
e 97 145
e 97 165
e 97 192
e 98 108
e 98 120
e 98 121
e 98 122
e 98 136
e 98 149
e 98 150
e 98 155
e 98 162
e 98 179
e 98 186
e 99 101
e 99 114
e 99 115
e 99 134
e 99 157
e 99 166
e 99 176
e 99 190
e 99 193
e 100 130
e 100 166
e 100 176
e 101 107
e 101 108
e 101 131
e 101 177
e 102 106
e 102 113
e 102 117
e 102 118
e 102 124
e 102 125
e 102 131
e 102 136
e 102 146
e 102 164
e 102 189
e 103 106
e 103 111
e 103 115
e 103 139
e 103 141
e 103 154
e 103 186
e 103 200
e 104 121
e 104 148
e 104 171
e 104 181
e 104 187
e 105 111
e 105 116
e 105 119
e 105 133
e 105 137
e 105 162
e 105 169
e 105 185
e 106 140
e 106 143
e 106 148
e 106 163
e 106 167
e 106 181
e 107 111
e 107 117
e 107 122
e 107 128
e 107 138
e 107 147
e 107 173
e 107 197
e 108 115
e 108 116
e 108 121
e 108 128
e 108 137
e 108 138
e 108 141
e 108 175
e 108 198
e 109 116
e 109 118
e 109 120
e 109 121
e 109 125
e 109 147
e 109 155
e 109 163
e 109 173
e 109 193
e 109 196
e 110 127
e 110 141
e 110 163
e 110 186
e 110 197
e 111 114
e 111 126
e 111 149
e 112 115
e 112 138
e 112 139
e 112 146
e 112 148
e 112 162
e 112 165
e 113 124
e 113 137
e 113 141
e 113 147
e 113 173
e 113 176
e 114 118
e 114 142
e 114 143
e 114 154
e 114 164
e 114 187
e 114 192
e 114 194
e 115 127
e 115 135
e 115 144
e 115 147
e 115 195
e 116 117
e 116 133
e 116 159
e 116 178
e 116 180
e 116 187
e 117 128
e 117 129
e 117 140
e 117 142
e 117 150
e 117 152
e 117 153
e 117 185
e 118 123
e 118 136
e 118 166
e 118 169
e 118 171
e 118 195
e 118 196
e 119 127
e 119 159
e 120 129
e 120 142
e 120 149
e 120 150
e 120 161
e 120 164
e 120 185
e 120 188
e 121 129
e 121 138
e 121 143
e 121 146
e 121 151
e 121 170
e 122 137
e 122 165
e 122 166
e 122 170
e 122 177
e 122 191
e 122 200
e 122 201
e 123 131
e 123 132
e 123 144
e 123 161
e 124 131
e 124 132
e 124 140
e 124 156
e 124 164
e 124 173
e 124 185
e 124 192
e 125 138
e 125 140
e 125 181
e 125 187
e 126 137
e 126 167
e 126 170
e 127 132
e 127 145
e 127 157
e 127 158
e 127 164
e 127 185
e 127 195
e 128 133
e 128 140
e 128 153
e 128 160
e 128 164
e 128 168
e 128 185
e 129 141
e 129 172
e 130 138
e 130 146
e 130 151
e 130 157
e 130 179
e 130 198
e 130 201
e 131 140
e 131 168
e 131 201
e 132 139
e 132 151
e 132 157
e 132 163
e 132 167
e 132 179
e 132 191
e 133 159
e 133 161
e 133 180
e 134 154
e 134 161
e 135 143
e 135 149
e 135 189
e 135 191
e 136 145
e 136 180
e 137 145
e 137 156
e 137 157
e 137 170
e 138 147
e 138 158
e 138 161
e 138 166
e 138 178
e 138 183
e 138 191
e 138 192
e 138 194
e 139 146
e 139 156
e 139 162
e 139 185
e 140 153
e 140 154
e 140 155
e 140 165
e 140 170
e 140 173
e 140 175
e 140 188
e 141 145
e 141 151
e 141 192
e 142 149
e 142 156
e 142 181
e 142 191
e 143 158
e 143 168
e 143 185
e 143 188
e 143 194
e 144 172
e 145 157
e 145 162
e 146 162
e 146 181
e 146 189
e 147 162
e 147 171
e 147 177
e 147 184
e 148 164
e 148 182
e 149 154
e 149 183
e 150 151
e 150 160
e 150 194
e 151 188
e 152 178
e 152 184
e 152 201
e 153 167
e 153 170
e 153 177
e 153 186
e 153 194
e 153 200
e 154 177
e 155 178
e 155 184
e 156 187
e 158 163
e 158 168
e 158 198
e 158 201
e 159 169
e 159 183
e 159 196
e 161 184
e 162 165
e 162 167
e 162 172
e 162 182
e 162 190
e 163 178
e 163 186
e 164 174
e 164 201
e 165 183
e 166 169
e 166 175
e 166 187
e 168 187
e 169 195
e 170 191
e 170 195
e 171 172
e 171 197
e 172 199
e 173 177
e 173 178
e 173 184
e 174 176
e 174 181
e 175 181
e 175 187
e 175 188
e 176 180
e 176 186
e 177 179
e 177 193
e 178 187
e 179 191
e 179 199
e 180 193
e 180 201
e 181 183
e 182 188
e 182 199
e 183 188
e 184 197
e 185 199
e 186 200
e 187 198
e 190 193
e 195 200
